NAME: pr2392
COMMENT: Tabu Search - tabusSize: 0.3 - neighborSize: 3
DIMENSION: 2392
DISTANCE: 427738.0
EXECUTION_TIME: 3.054
TOUR_SECTION: 
2371 2372 2373 2374 2375 2376 2377 2378 2379 2380 2385 2384 2383 2382 2381 2370 2365 2366 2367 2346 2345 2344 2343 2342 2341 2340 2339 2338 2337 2336 2335 2334 2331 2330 2329 2386 2388 2389 2390 2391 2392 1 2387 2 3 4 5 6 7 8 9 10 11 12 13 14 15 16 2328 2327 2326 2333 2332 2325 2324 2318 2317 2316 2315 2314 2313 2312 2309 2310 2311 1313 1314 1312 1311 1310 2320 2319 2321 2322 2323 1309 1308 1306 1307 1305 1304 1303 1302 1301 1300 1299 1298 1297 19 18 17 20 21 22 23 24 25 26 27 28 29 30 33 32 31 1296 1295 1294 1293 1292 1291 1290 1289 1288 1286 1287 1353 1352 1351 1350 1347 1346 1345 1348 1349 1354 1355 1356 1285 1284 1283 34 35 36 37 38 39 40 41 42 43 44 45 46 1282 1281 1280 1357 1358 1359 1360 1363 1362 1361 1374 1375 1279 1278 1277 1276 1275 1274 1273 1272 1271 1270 1269 49 47 48 50 51 52 53 54 55 56 57 58 59 60 61 62 63 64 65 66 67 68 69 70 71 72 73 74 75 76 1210 1209 1208 1213 1212 1211 1268 1267 1266 1265 1264 1263 1262 1261 1260 1259 1258 1257 1256 1255 1254 1253 1252 1251 1250 1248 1249 1228 1229 1227 1226 1225 1224 1223 1222 1221 1220 1219 1218 1217 1216 1215 1214 1207 1206 1205 1204 1202 1201 1203 1200 1199 1198 1197 1196 1195 1194 1191 1192 1193 159 160 158 157 156 155 154 153 152 151 150 149 148 147 146 145 144 143 79 78 77 80 81 82 83 84 85 86 87 88 89 90 91 92 93 94 95 96 97 98 99 100 101 102 103 104 105 106 107 109 110 111 112 113 114 115 116 117 108 128 127 126 131 130 129 142 141 140 139 138 137 136 135 134 132 133 199 198 197 196 193 192 191 194 195 200 201 202 203 204 205 206 207 220 221 125 124 123 122 121 120 119 118 224 223 222 219 218 217 208 209 210 211 212 213 214 216 215 227 226 225 228 229 230 231 232 233 235 234 236 237 238 239 240 241 242 243 244 245 246 250 251 252 253 248 249 247 254 255 189 190 188 168 167 164 162 161 163 166 165 186 187 185 169 184 183 182 181 180 179 178 177 176 175 174 173 172 171 170 1190 1189 1188 1187 1186 1185 1184 1183 1182 1181 1180 1179 1178 1177 1175 1176 1174 1173 1172 1171 1170 1169 1168 1167 1166 1165 1164 1163 1162 1161 1160 1159 1158 1157 1156 1155 1154 1153 1152 1151 1150 1149 1148 1147 1146 1145 1144 1142 1143 1140 1139 1141 1137 1136 1110 1109 1111 1138 358 359 360 361 362 363 364 366 365 368 367 369 370 371 372 373 374 375 376 377 378 379 381 380 385 382 383 384 388 387 386 326 325 327 324 323 322 321 320 319 318 316 315 317 306 305 304 292 291 307 308 309 310 311 312 313 314 328 329 331 330 332 336 333 334 335 337 338 339 340 341 342 343 344 345 346 347 348 349 357 356 354 355 350 351 353 352 258 257 256 259 260 261 262 263 264 265 266 267 268 269 270 271 272 273 274 275 276 277 278 280 281 279 282 283 284 285 286 287 288 289 290 293 294 295 298 297 296 299 300 400 401 399 397 398 301 302 303 396 394 395 393 392 391 390 389 972 971 970 973 974 975 976 977 967 968 969 402 403 404 405 406 966 965 407 408 409 410 411 412 413 414 415 416 417 419 418 438 437 436 432 429 428 427 431 430 435 434 433 459 458 457 456 455 454 453 452 451 450 449 448 447 446 445 444 443 442 441 440 439 426 425 421 420 964 978 984 985 986 987 1086 1085 1084 1083 1082 1075 1079 1080 1081 1074 1073 1089 1087 1088 1095 1096 1097 1098 1099 1100 1101 1102 1103 1104 1105 1106 1107 1108 1112 1113 1114 1091 1092 1093 1094 1090 1120 1119 1118 1117 1121 1122 1123 1124 1125 1127 1116 1115 1133 1132 1134 1135 1131 1130 1129 1128 1126 1072 1071 1070 1069 1068 1067 1066 1065 1064 1061 1063 1062 1059 1058 1057 1056 1055 1054 1052 1053 1049 1048 1050 1051 1047 1046 1044 1045 1238 1237 1236 1235 1232 1231 1233 1234 1230 1245 1246 1247 1244 1243 1242 1241 1386 1385 1384 1383 1382 1381 1380 1379 1378 1377 1376 1373 1372 1371 1369 1370 1368 1367 1364 1365 1366 1343 1344 1342 1341 1339 1340 1319 1316 1315 1317 1318 1320 1321 1322 1324 1323 2307 2308 2306 2305 2303 2302 2301 2300 2304 1325 1326 1327 1328 1329 1330 1331 1332 1333 1335 1334 1338 1337 1336 1409 1410 1408 1405 1404 1403 1407 1406 1402 1401 1400 1399 1398 1397 1396 1395 1394 1393 1392 1391 1390 1389 1388 1387 1240 1239 1043 1042 1041 1040 1039 1038 1037 1433 1434 1432 1431 1430 1429 1428 1427 1426 1425 1424 1423 1422 1421 1420 1419 1418 1417 1416 1415 1414 1413 1411 1412 1506 1507 1505 1504 1437 1436 1435 1036 1035 1034 1033 1060 1031 1032 1030 1029 1028 1027 1026 1025 1024 1023 1022 1021 1454 1455 1452 1453 1450 1451 1449 1448 1447 1445 1444 1443 1442 1441 1440 1439 1438 1463 1464 1465 1468 1482 1483 1484 1485 1486 1489 1488 1487 1490 1491 1492 1493 1494 1495 1496 1497 1498 1499 1500 1501 1502 1503 1511 1510 1508 1509 1512 1513 1514 1515 1516 1517 1518 1520 1519 1522 1521 1523 1524 1525 1526 1527 1528 1529 1530 1531 1532 1533 1535 1534 1539 1536 1537 1538 1542 1541 1540 1479 1480 1481 1478 1477 1476 1475 1474 1473 1472 1470 1471 1469 1467 1466 1462 1461 1460 1446 1459 1458 1457 1456 1552 1551 1553 1554 1555 1547 1546 1545 1544 1543 1548 1549 1550 1556 1557 1558 1559 1560 1017 1020 1019 1018 1077 1078 1076 1016 1015 1014 1013 1012 1010 1011 880 881 882 883 884 885 886 887 888 825 826 823 824 890 889 891 892 893 1009 1008 1007 1006 1005 1004 1003 1002 1001 1000 999 998 997 994 995 996 894 895 896 897 898 899 900 901 902 903 904 905 906 907 993 992 991 990 989 988 983 982 979 980 981 908 909 910 911 912 913 914 915 919 916 918 917 963 962 961 424 423 422 960 959 951 952 950 954 953 956 957 958 920 955 921 922 923 924 925 926 927 928 929 930 932 931 948 947 949 946 945 944 474 475 476 477 478 479 480 481 482 463 462 461 460 464 465 466 467 468 469 471 472 470 473 938 939 940 941 943 942 933 792 791 934 935 936 937 752 753 754 755 756 757 758 762 763 764 765 766 768 775 771 770 769 774 772 773 776 777 778 759 760 761 779 780 786 788 790 789 787 785 784 781 782 783 793 794 795 796 807 806 808 809 810 811 812 813 814 803 804 805 797 798 799 800 801 802 815 816 817 818 819 820 821 822 827 828 829 830 831 832 833 834 835 837 836 838 839 767 840 841 842 843 844 845 846 847 848 849 850 851 852 854 855 861 860 859 858 856 857 853 1702 1703 1704 1705 1707 1706 1710 1709 1708 1717 1718 1719 1720 1725 1724 1721 1722 1723 1726 1728 1729 1730 1731 1732 1733 1734 1735 1716 1715 1714 1713 1712 1711 1697 1701 1700 1699 1698 863 862 864 865 868 867 866 1689 1690 1696 1695 1694 1693 1692 1691 1688 1687 1686 1685 1684 1677 1676 1675 1674 1678 1679 1680 1681 1682 1683 870 869 871 872 873 874 875 876 877 878 879 1561 1562 1563 1564 1565 1566 1567 1568 1569 1570 1571 1572 1573 1574 1575 1576 1577 1578 1579 1623 1624 1625 1626 1627 1628 1629 1630 1632 1633 1631 1637 1634 1635 1636 1670 1669 1668 1671 1672 1673 1666 1667 1665 1664 1662 1663 1642 1643 1641 1640 1638 1639 1644 1645 1646 1657 1661 1660 1659 1727 1658 1656 1655 1654 1653 1652 1651 1650 1649 1648 1647 2050 2049 2048 2058 2057 2056 2054 2053 2052 2051 1617 1618 1619 1620 1621 1622 1591 1580 1581 1582 1583 1584 1585 1586 1587 1588 1589 1590 1599 1600 1601 1602 1603 1598 1597 1596 1595 1594 1593 1592 1616 1615 1614 1613 1612 1611 1610 1609 1608 2073 2074 2077 2076 2075 2072 2071 2070 2069 2055 2068 2067 2066 2065 2064 2063 2062 2061 2059 2060 2047 2044 2043 2042 2040 2041 2045 2046 2036 2035 2034 2033 2032 2031 2012 2013 2014 2015 2016 2017 2018 2019 2021 2022 2023 2024 2027 2028 2025 2026 2029 2030 2037 2038 2039 2005 2006 2007 2008 2009 2010 2011 1924 1921 1920 1917 1919 1918 1916 1915 1914 1913 1912 1911 1940 1941 1910 1909 1908 1907 1906 1905 1904 1903 1902 1901 1900 1899 1898 1897 1896 1895 1894 1893 1892 1891 1887 1890 1888 1886 1885 1884 1883 1882 1881 1879 1880 1971 1972 1973 1878 1877 1974 1976 1975 1876 1874 1875 1873 1872 1871 1814 1816 1810 1817 1818 1819 1820 1821 1822 1823 1824 1825 1826 1827 1830 1828 1829 1831 1832 1833 1834 1835 1836 1837 1839 1838 1842 1843 1841 1840 1844 1845 1847 1846 1736 1737 1738 1739 1740 1741 1742 1743 1744 1745 1746 1747 1748 1749 1750 1752 1753 1751 1754 1755 1756 1757 1760 1761 1762 1763 1764 1765 1759 1758 1781 1782 1780 1783 1784 1779 1778 1777 1776 1772 1773 1774 1775 1766 1767 1768 1769 1770 1771 1801 1800 1799 1796 1797 1798 650 649 648 647 646 645 644 643 642 641 640 639 638 637 696 695 694 697 636 635 634 633 632 631 630 629 628 626 627 718 719 720 625 624 721 724 725 726 727 728 729 732 731 733 734 736 735 744 746 749 748 750 751 595 596 597 598 599 600 601 602 603 604 605 606 607 608 609 610 611 612 613 614 615 616 617 563 557 564 565 566 567 568 569 570 571 572 573 574 577 575 576 578 579 580 581 582 583 584 586 585 589 590 588 587 591 592 594 593 483 484 485 486 487 488 489 490 491 492 493 494 495 496 497 499 498 500 501 502 503 504 507 508 506 505 528 529 527 530 531 526 525 524 523 522 511 510 509 512 513 521 520 519 518 515 514 516 517 548 547 537 532 533 534 536 535 538 539 542 541 540 543 544 545 546 550 549 551 552 553 554 555 556 558 559 562 560 561 618 619 620 621 622 623 722 723 730 717 716 705 710 711 712 713 714 715 737 738 739 740 742 741 743 745 747 672 670 669 671 668 667 666 665 664 663 662 661 660 659 658 673 674 675 676 677 678 679 680 681 683 685 684 682 708 709 707 706 704 703 702 701 700 698 699 693 692 691 690 689 686 688 687 656 657 655 654 653 652 651 1787 1786 1785 1788 1789 1790 1791 1792 1793 1794 1795 1803 1802 1804 1805 1806 1807 1808 1809 1811 1812 1815 1813 1870 1869 1868 1867 1866 1865 1864 1863 1862 1861 1860 1859 1858 1857 1856 1855 1854 1853 1852 1851 1850 1848 1849 2003 2004 2002 2001 2000 1999 1998 1997 1996 1994 1995 1993 1992 1990 1991 1966 1965 1964 1963 1967 1968 1988 1989 1977 1978 1979 1980 1981 1982 1985 1986 1987 1984 1983 1970 1969 1958 1957 1956 1955 1954 1953 1959 1960 1952 1951 1962 1961 1948 1949 1950 1889 1947 1946 1945 1943 1944 1937 1942 1939 1938 1936 1935 1934 1933 1932 1931 1930 1929 1928 1927 1926 1925 1923 1922 2097 2098 2099 2100 2101 2102 2096 2095 2094 2092 2093 2091 2020 2090 2089 2104 2103 2105 2106 2111 2112 2110 2109 2107 2108 2087 2088 2086 2085 2084 2083 2082 2081 2080 2079 2078 2115 2114 2113 2116 2117 2118 2119 2120 2121 2122 2123 2124 2125 2126 2127 2128 2129 1607 1606 1605 1604 2130 2131 2132 2133 2134 2135 2195 2136 2137 2138 2139 2140 2141 2142 2143 2144 2145 2146 2147 2148 2150 2149 2180 2181 2179 2182 2183 2185 2184 2176 2177 2178 2151 2152 2153 2154 2155 2156 2158 2159 2157 2160 2161 2162 2163 2164 2165 2169 2168 2166 2167 2171 2170 2172 2173 2174 2175 2244 2243 2235 2236 2237 2238 2239 2240 2241 2242 2187 2186 2188 2189 2190 2191 2192 2193 2194 2196 2197 2198 2199 2200 2201 2202 2203 2204 2205 2206 2207 2208 2223 2222 2219 2220 2221 2218 2217 2215 2214 2216 2213 2212 2211 2210 2209 2232 2233 2234 2245 2246 2247 2249 2248 2250 2251 2230 2231 2224 2225 2226 2229 2227 2228 2252 2253 2254 2255 2256 2257 2258 2259 2260 2261 2262 2263 2264 2265 2266 2267 2268 2269 2273 2272 2271 2270 2276 2275 2274 2295 2296 2297 2298 2299 2294 2293 2292 2291 2288 2287 2289 2286 2285 2284 2290 2277 2278 2279 2280 2281 2283 2282 2350 2349 2351 2352 2348 2363 2364 2362 2361 2360 2359 2358 2357 2356 2355 2354 2353 2347 2368 2369 
EOF